
GUB cover cuts applied:  4
Clique cuts applied:  3
Cover cuts applied:  54
Implied bound cuts applied:  47
Mixed integer rounding cuts applied:  12
Zero-half cuts applied:  1

Root node processing (before b&c):
  Real time             =    0.09 sec. (57.48 ticks)
Parallel b&c, 4 threads:
  Real time             =    0.19 sec. (187.77 ticks)
  Sync time (average)   =    0.02 sec.
  Wait time (average)   =    0.00 sec.
                          ------------
Total (root+branch&cut) =    0.28 sec. (245.25 ticks)
Version identifier: 12.10.0.0 | 2019-11-26 | 843d4de
CPXPARAM_MIP_Interval                            10
CPXPARAM_MIP_Tolerances_AbsMIPGap                0.98999999999999999
Tried aggregator 2 times.
MIP Presolve eliminated 7146 rows and 3464 columns.
MIP Presolve added 4 rows and 0 columns.
MIP Presolve modified 200 coefficients.
Aggregator did 11 substitutions.
Reduced MIP has 3505 rows, 304 columns, and 7684 nonzeros.
Reduced MIP has 245 binaries, 59 generals, 0 SOSs, and 0 indicators.
Presolve time = 0.01 sec. (11.46 ticks)
Probing fixed 0 vars, tightened 9 bounds.
Probing time = 0.00 sec. (1.40 ticks)
Cover probing fixed 0 vars, tightened 48 bounds.
Tried aggregator 1 time.
Detecting symmetries...
MIP Presolve eliminated 2938 rows and 0 columns.
MIP Presolve modified 9 coefficients.
Reduced MIP has 567 rows, 304 columns, and 1808 nonzeros.
Reduced MIP has 245 binaries, 59 generals, 0 SOSs, and 0 indicators.
Presolve time = 0.00 sec. (2.53 ticks)
Probing fixed 0 vars, tightened 9 bounds.
Probing time = 0.00 sec. (0.35 ticks)
Cover probing fixed 0 vars, tightened 45 bounds.
Clique table members: 373.
MIP emphasis: balance optimality and feasibility.
MIP search method: dynamic search.
Parallel mode: deterministic, using up to 4 threads.
Root relaxation solution time = 0.00 sec. (2.58 ticks)

        Nodes                                         Cuts/
   Node  Left     Objective  IInf  Best Integer    Best Bound    ItCnt     Gap

      0     0       39.3333    70                     39.3333      252         
      0     0       39.3333    70                    Cuts: 26      361         
      0     0       39.3333    70                    Cuts: 52      470         
      0     0       39.3333    70                     Cuts: 3      525         
      0     0       39.3333    70                    Cuts: 27      650         
      0     0       39.3333    70                    Cuts: 48      773         
Detecting symmetries...
*     0+    0                           36.0000       39.3333             9.26%
*     0+    0                           37.0000       39.3333             6.31%
      0     0        cutoff             37.0000       39.3333      773    6.31%
Detecting symmetries...
      0     2       39.3333    59       37.0000       39.3333      773    6.31%
Elapsed time = 0.15 sec. (143.37 ticks, tree = 0.02 MB, solutions = 2)
     10     9       38.5238   129       37.0000       39.3333     1542    6.31%
*    11+    1                           38.0000       39.3333             3.51%
     20     9       39.1049    67       38.0000       39.3333     2614    3.51%
     30    11        cutoff             38.0000       39.3333     3390    3.51%
     40    10       39.1111    60       38.0000       39.3333     3665    3.51%
     50     7       39.3333    44       38.0000       39.3333     4201    3.51%
     60     5       39.0000    44       38.0000       39.3333     4705    3.51%
     70     7       39.0000    40       38.0000       39.2857     5553    3.38%
the number of Nodes = 76
